c description: Subset cardinality formula for fast_gnp_random_graph(6,6,0.9)
c generator: CNFgen (0.9.0)
c copyright: (C) 2012-2020 Massimo Lauria <massimo.lauria@uniroma1.it>
c url: https://massimolauria.net/cnfgen
c
p cnf 32 138
1 2 3 0
1 2 4 0
1 2 5 0
1 3 4 0
1 3 5 0
1 4 5 0
2 3 4 0
2 3 5 0
2 4 5 0
3 4 5 0
6 7 8 9 0
6 7 8 10 0
6 7 8 11 0
6 7 9 10 0
6 7 9 11 0
6 7 10 11 0
6 8 9 10 0
6 8 9 11 0
6 8 10 11 0
6 9 10 11 0
7 8 9 10 0
7 8 9 11 0
7 8 10 11 0
7 9 10 11 0
8 9 10 11 0
12 13 14 0
12 13 15 0
12 14 15 0
13 14 15 0
16 17 18 0
16 17 19 0
16 17 20 0
16 18 19 0
16 18 20 0
16 19 20 0
17 18 19 0
17 18 20 0
17 19 20 0
18 19 20 0
21 22 23 24 0
21 22 23 25 0
21 22 23 26 0
21 22 24 25 0
21 22 24 26 0
21 22 25 26 0
21 23 24 25 0
21 23 24 26 0
21 23 25 26 0
21 24 25 26 0
22 23 24 25 0
22 23 24 26 0
22 23 25 26 0
22 24 25 26 0
23 24 25 26 0
27 28 29 30 0
27 28 29 31 0
27 28 29 32 0
27 28 30 31 0
27 28 30 32 0
27 28 31 32 0
27 29 30 31 0
27 29 30 32 0
27 29 31 32 0
27 30 31 32 0
28 29 30 31 0
28 29 30 32 0
28 29 31 32 0
28 30 31 32 0
29 30 31 32 0
-1 -6 -16 0
-1 -6 -21 0
-1 -6 -27 0
-1 -16 -21 0
-1 -16 -27 0
-1 -21 -27 0
-6 -16 -21 0
-6 -16 -27 0
-6 -21 -27 0
-16 -21 -27 0
-7 -17 -22 0
-7 -17 -28 0
-7 -22 -28 0
-17 -22 -28 0
-2 -8 -12 -18 0
-2 -8 -12 -23 0
-2 -8 -12 -29 0
-2 -8 -18 -23 0
-2 -8 -18 -29 0
-2 -8 -23 -29 0
-2 -12 -18 -23 0
-2 -12 -18 -29 0
-2 -12 -23 -29 0
-2 -18 -23 -29 0
-8 -12 -18 -23 0
-8 -12 -18 -29 0
-8 -12 -23 -29 0
-8 -18 -23 -29 0
-12 -18 -23 -29 0
-3 -9 -13 -19 0
-3 -9 -13 -24 0
-3 -9 -13 -30 0
-3 -9 -19 -24 0
-3 -9 -19 -30 0
-3 -9 -24 -30 0
-3 -13 -19 -24 0
-3 -13 -19 -30 0
-3 -13 -24 -30 0
-3 -19 -24 -30 0
-9 -13 -19 -24 0
-9 -13 -19 -30 0
-9 -13 -24 -30 0
-9 -19 -24 -30 0
-13 -19 -24 -30 0
-4 -10 -14 0
-4 -10 -25 0
-4 -10 -31 0
-4 -14 -25 0
-4 -14 -31 0
-4 -25 -31 0
-10 -14 -25 0
-10 -14 -31 0
-10 -25 -31 0
-14 -25 -31 0
-5 -11 -15 -20 0
-5 -11 -15 -26 0
-5 -11 -15 -32 0
-5 -11 -20 -26 0
-5 -11 -20 -32 0
-5 -11 -26 -32 0
-5 -15 -20 -26 0
-5 -15 -20 -32 0
-5 -15 -26 -32 0
-5 -20 -26 -32 0
-11 -15 -20 -26 0
-11 -15 -20 -32 0
-11 -15 -26 -32 0
-11 -20 -26 -32 0
-15 -20 -26 -32 0